56013.22,49.36,59.85
58063.65,47.61,57.74
53662.89,51.52,62.48
57485.51,48.09,58.32
46964.96,58.87,71.39
49067.71,56.34,68.33
59146.34,46.74,56.68
58852.22,46.98,56.97
52204.83,52.96,64.22
53312.71,51.86,62.89
57958.2,47.7,57.85
46629.45,59.29,71.9
58894.49,46.94,56.93
53756.36,51.43,62.37
53250.99,51.92,62.96
54342.37,50.87,61.69
59819.49,46.22,56.05
55316.89,49.98,60.61
49122.8,56.28,68.25
56511.13,48.92,59.33
